(declare-const v0 Bool)
(declare-const v1 Bool)
(declare-const v2 Bool)
(declare-const v3 Bool)
(declare-const v4 Bool)
(assert (edge (or v0 (not v1)) true))
(assert (edge (not v0) (or v2 (not v1))))
(assert (edge true (or v0 v3)))
(assert (edge v2 (or v0 (not v3))))
(assert (edge (or v1 v2 v4) (or v1 v2 v4)))
(assert (not (edge (or (not v1) (not v3) v4) (or v4 (not v3)))))